NAME : TSP_INST.7166800.tour
COMMENT : Length = 7166800
COMMENT : Found by LKH [Keld Helsgaun] Sat Oct 18 11:07:56 2025
TYPE : TOUR
DIMENSION : 100
TOUR_SECTION
1
12
96
56
51
97
95
98
37
66
34
86
21
94
50
78
7
46
2
92
67
15
14
19
36
3
69
70
10
26
39
64
24
80
44
55
27
93
53
65
23
5
6
87
33
79
83
71
16
42
63
35
13
85
20
9
60
73
17
61
43
76
77
4
30
88
40
48
11
49
59
18
38
91
58
89
57
100
32
31
72
52
74
62
84
82
75
22
8
47
25
45
41
81
90
99
28
54
68
29
-1
EOF
